coords = array2d(1..49, 1..2, [817, 572, 517, 523, 822, 746, 494, 767, 863,
    358, 949, 511, 144, 833, 562, 604, 319, 181, 457, 253, 247, 860,
    299, 460, 423, 841, 831, 656, 366, 773, 865, 348, 370, 962, 423,
    430, 670, 349, 800, 409, 49, 168, 142, 27, 571, 414, 209, 207,
    504, 669, 136, 910, 978, 31, 906, 230, 340, 272, 567, 848, 764,
    148, 778, 449, 486, 815, 50, 696, 297, 790, 754, 255, 739, 108,
    910, 792, 766, 298, 135, 301, 19, 362, 755, 221, 173, 285, 58,
    594, 252, 717, 68, 638, 976, 147, 362, 638, 150, 20]);

n = 49;

